\Problem name: IloCplex

Maximize
 obj: id483
Subject To
 id104: id1 + id2 + id3 + id4 + id5 + id6 + id7 + id8 + id9 + id10  = 6
 id106: id11 + id12 + id13 + id14 + id15 + id16 + id17 + id18 + id19 + id20
         = 4
 id108: id21 + id22 + id23 + id24 + id25 + id26 + id27 + id28 + id29 + id30
         = 6
 id110: id31 + id32 + id33 + id34 + id35 + id36 + id37 + id38 + id39 + id40
         = 5
 id112: id41 + id42 + id43 + id44 + id45 + id46 + id47 + id48 + id49 + id50
         = 3
 id114: id51 + id52 + id53 + id54 + id55 + id56 + id57 + id58 + id59 + id60
         = 4
 id116: id61 + id62 + id63 + id64 + id65 + id66 + id67 + id68 + id69 + id70
         = 3
 id118: id71 + id72 + id73 + id74 + id75 + id76 + id77 + id78 + id79 + id80
         = 2
 id120: id81 + id82 + id83 + id84 + id85 + id86 + id87 + id88 + id89 + id90
         = 1
 id122: id91 + id92 + id93 + id94 + id95 + id96 + id97 + id98 + id99 + id100
         = 3
 id125: - id1 - id11 + 2 id41 <= 0
 id128: id1 + id11 - 2 id41 <= 1
 id131: - id2 - id12 + 2 id42 <= 0
 id134: id2 + id12 - 2 id42 <= 1
 id137: - id3 - id13 + 2 id43 <= 0
 id140: id3 + id13 - 2 id43 <= 1
 id143: - id4 - id14 + 2 id44 <= 0
 id146: id4 + id14 - 2 id44 <= 1
 id149: - id5 - id15 + 2 id45 <= 0
 id152: id5 + id15 - 2 id45 <= 1
 id155: - id6 - id16 + 2 id46 <= 0
 id158: id6 + id16 - 2 id46 <= 1
 id161: - id7 - id17 + 2 id47 <= 0
 id164: id7 + id17 - 2 id47 <= 1
 id167: - id8 - id18 + 2 id48 <= 0
 id170: id8 + id18 - 2 id48 <= 1
 id173: - id9 - id19 + 2 id49 <= 0
 id176: id9 + id19 - 2 id49 <= 1
 id179: - id10 - id20 + 2 id50 <= 0
 id182: id10 + id20 - 2 id50 <= 1
 id185: - id1 - id21 + 2 id51 <= 0
 id188: id1 + id21 - 2 id51 <= 1
 id191: - id2 - id22 + 2 id52 <= 0
 id194: id2 + id22 - 2 id52 <= 1
 id197: - id3 - id23 + 2 id53 <= 0
 id200: id3 + id23 - 2 id53 <= 1
 id203: - id4 - id24 + 2 id54 <= 0
 id206: id4 + id24 - 2 id54 <= 1
 id209: - id5 - id25 + 2 id55 <= 0
 id212: id5 + id25 - 2 id55 <= 1
 id215: - id6 - id26 + 2 id56 <= 0
 id218: id6 + id26 - 2 id56 <= 1
 id221: - id7 - id27 + 2 id57 <= 0
 id224: id7 + id27 - 2 id57 <= 1
 id227: - id8 - id28 + 2 id58 <= 0
 id230: id8 + id28 - 2 id58 <= 1
 id233: - id9 - id29 + 2 id59 <= 0
 id236: id9 + id29 - 2 id59 <= 1
 id239: - id10 - id30 + 2 id60 <= 0
 id242: id10 + id30 - 2 id60 <= 1
 id245: - id1 - id31 + 2 id61 <= 0
 id248: id1 + id31 - 2 id61 <= 1
 id251: - id2 - id32 + 2 id62 <= 0
 id254: id2 + id32 - 2 id62 <= 1
 id257: - id3 - id33 + 2 id63 <= 0
 id260: id3 + id33 - 2 id63 <= 1
 id263: - id4 - id34 + 2 id64 <= 0
 id266: id4 + id34 - 2 id64 <= 1
 id269: - id5 - id35 + 2 id65 <= 0
 id272: id5 + id35 - 2 id65 <= 1
 id275: - id6 - id36 + 2 id66 <= 0
 id278: id6 + id36 - 2 id66 <= 1
 id281: - id7 - id37 + 2 id67 <= 0
 id284: id7 + id37 - 2 id67 <= 1
 id287: - id8 - id38 + 2 id68 <= 0
 id290: id8 + id38 - 2 id68 <= 1
 id293: - id9 - id39 + 2 id69 <= 0
 id296: id9 + id39 - 2 id69 <= 1
 id299: - id10 - id40 + 2 id70 <= 0
 id302: id10 + id40 - 2 id70 <= 1
 id305: - id11 - id21 + 2 id71 <= 0
 id308: id11 + id21 - 2 id71 <= 1
 id311: - id12 - id22 + 2 id72 <= 0
 id314: id12 + id22 - 2 id72 <= 1
 id317: - id13 - id23 + 2 id73 <= 0
 id320: id13 + id23 - 2 id73 <= 1
 id323: - id14 - id24 + 2 id74 <= 0
 id326: id14 + id24 - 2 id74 <= 1
 id329: - id15 - id25 + 2 id75 <= 0
 id332: id15 + id25 - 2 id75 <= 1
 id335: - id16 - id26 + 2 id76 <= 0
 id338: id16 + id26 - 2 id76 <= 1
 id341: - id17 - id27 + 2 id77 <= 0
 id344: id17 + id27 - 2 id77 <= 1
 id347: - id18 - id28 + 2 id78 <= 0
 id350: id18 + id28 - 2 id78 <= 1
 id353: - id19 - id29 + 2 id79 <= 0
 id356: id19 + id29 - 2 id79 <= 1
 id359: - id20 - id30 + 2 id80 <= 0
 id362: id20 + id30 - 2 id80 <= 1
 id365: - id11 - id31 + 2 id81 <= 0
 id368: id11 + id31 - 2 id81 <= 1
 id371: - id12 - id32 + 2 id82 <= 0
 id374: id12 + id32 - 2 id82 <= 1
 id377: - id13 - id33 + 2 id83 <= 0
 id380: id13 + id33 - 2 id83 <= 1
 id383: - id14 - id34 + 2 id84 <= 0
 id386: id14 + id34 - 2 id84 <= 1
 id389: - id15 - id35 + 2 id85 <= 0
 id392: id15 + id35 - 2 id85 <= 1
 id395: - id16 - id36 + 2 id86 <= 0
 id398: id16 + id36 - 2 id86 <= 1
 id401: - id17 - id37 + 2 id87 <= 0
 id404: id17 + id37 - 2 id87 <= 1
 id407: - id18 - id38 + 2 id88 <= 0
 id410: id18 + id38 - 2 id88 <= 1
 id413: - id19 - id39 + 2 id89 <= 0
 id416: id19 + id39 - 2 id89 <= 1
 id419: - id20 - id40 + 2 id90 <= 0
 id422: id20 + id40 - 2 id90 <= 1
 id425: - id21 - id31 + 2 id91 <= 0
 id428: id21 + id31 - 2 id91 <= 1
 id431: - id22 - id32 + 2 id92 <= 0
 id434: id22 + id32 - 2 id92 <= 1
 id437: - id23 - id33 + 2 id93 <= 0
 id440: id23 + id33 - 2 id93 <= 1
 id443: - id24 - id34 + 2 id94 <= 0
 id446: id24 + id34 - 2 id94 <= 1
 id449: - id25 - id35 + 2 id95 <= 0
 id452: id25 + id35 - 2 id95 <= 1
 id455: - id26 - id36 + 2 id96 <= 0
 id458: id26 + id36 - 2 id96 <= 1
 id461: - id27 - id37 + 2 id97 <= 0
 id464: id27 + id37 - 2 id97 <= 1
 id467: - id28 - id38 + 2 id98 <= 0
 id470: id28 + id38 - 2 id98 <= 1
 id473: - id29 - id39 + 2 id99 <= 0
 id476: id29 + id39 - 2 id99 <= 1
 id479: - id30 - id40 + 2 id100 <= 0
 id482: id30 + id40 - 2 id100 <= 1
Bounds
      id483 = 0
 0 <= id1 <= 1
 0 <= id2 <= 1
 0 <= id3 <= 1
 0 <= id4 <= 1
 0 <= id5 <= 1
 0 <= id6 <= 1
 0 <= id7 <= 1
 0 <= id8 <= 1
 0 <= id9 <= 1
 0 <= id10 <= 1
 0 <= id11 <= 1
 0 <= id12 <= 1
 0 <= id13 <= 1
 0 <= id14 <= 1
 0 <= id15 <= 1
 0 <= id16 <= 1
 0 <= id17 <= 1
 0 <= id18 <= 1
 0 <= id19 <= 1
 0 <= id20 <= 1
 0 <= id21 <= 1
 0 <= id22 <= 1
 0 <= id23 <= 1
 0 <= id24 <= 1
 0 <= id25 <= 1
 0 <= id26 <= 1
 0 <= id27 <= 1
 0 <= id28 <= 1
 0 <= id29 <= 1
 0 <= id30 <= 1
 0 <= id31 <= 1
 0 <= id32 <= 1
 0 <= id33 <= 1
 0 <= id34 <= 1
 0 <= id35 <= 1
 0 <= id36 <= 1
 0 <= id37 <= 1
 0 <= id38 <= 1
 0 <= id39 <= 1
 0 <= id40 <= 1
 0 <= id41 <= 1
 0 <= id42 <= 1
 0 <= id43 <= 1
 0 <= id44 <= 1
 0 <= id45 <= 1
 0 <= id46 <= 1
 0 <= id47 <= 1
 0 <= id48 <= 1
 0 <= id49 <= 1
 0 <= id50 <= 1
 0 <= id51 <= 1
 0 <= id52 <= 1
 0 <= id53 <= 1
 0 <= id54 <= 1
 0 <= id55 <= 1
 0 <= id56 <= 1
 0 <= id57 <= 1
 0 <= id58 <= 1
 0 <= id59 <= 1
 0 <= id60 <= 1
 0 <= id61 <= 1
 0 <= id62 <= 1
 0 <= id63 <= 1
 0 <= id64 <= 1
 0 <= id65 <= 1
 0 <= id66 <= 1
 0 <= id67 <= 1
 0 <= id68 <= 1
 0 <= id69 <= 1
 0 <= id70 <= 1
 0 <= id71 <= 1
 0 <= id72 <= 1
 0 <= id73 <= 1
 0 <= id74 <= 1
 0 <= id75 <= 1
 0 <= id76 <= 1
 0 <= id77 <= 1
 0 <= id78 <= 1
 0 <= id79 <= 1
 0 <= id80 <= 1
 0 <= id81 <= 1
 0 <= id82 <= 1
 0 <= id83 <= 1
 0 <= id84 <= 1
 0 <= id85 <= 1
 0 <= id86 <= 1
 0 <= id87 <= 1
 0 <= id88 <= 1
 0 <= id89 <= 1
 0 <= id90 <= 1
 0 <= id91 <= 1
 0 <= id92 <= 1
 0 <= id93 <= 1
 0 <= id94 <= 1
 0 <= id95 <= 1
 0 <= id96 <= 1
 0 <= id97 <= 1
 0 <= id98 <= 1
 0 <= id99 <= 1
 0 <= id100 <= 1
Binaries
 id1  id2  id3  id4  id5  id6  id7  id8  id9  id10  id11  id12  id13  id14 
 id15  id16  id17  id18  id19  id20  id21  id22  id23  id24  id25  id26  id27 
 id28  id29  id30  id31  id32  id33  id34  id35  id36  id37  id38  id39  id40 
 id41  id42  id43  id44  id45  id46  id47  id48  id49  id50  id51  id52  id53 
 id54  id55  id56  id57  id58  id59  id60  id61  id62  id63  id64  id65  id66 
 id67  id68  id69  id70  id71  id72  id73  id74  id75  id76  id77  id78  id79 
 id80  id81  id82  id83  id84  id85  id86  id87  id88  id89  id90  id91  id92 
 id93  id94  id95  id96  id97  id98  id99  id100 
End
